时空电价/DOPF.lp
\ Model DOPF_model
\ LP format - for model browsing. Use MPS format to capture full model detail.
Minimize
 [ 0.2 P[0] ^2 ] / 2 
Subject To
 节点净负荷有功约束[0]: - Pg[0] + Pg[0] - P[0] = 0
 节点净负荷有功约束[1]: - Pg[1] + Pg[1] - P[1] = 0
 节点净负荷有功约束[2]: - Pg[2] + Pg[2] - P[2] = 0
 节点净负荷有功约束[3]: - Pg[3] + Pg[3] - P[3] = 0
 节点净负荷有功约束[4]: - Pg[4] + Pg[4] - P[4] = 0
 节点净负荷有功约束[5]: - Pg[5] + Pg[5] - P[5] = 0
 节点净负荷有功约束[6]: - Pg[6] + Pg[6] - P[6] = 0
 节点净负荷有功约束[7]: - Pg[7] + Pg[7] - P[7] = 0
 节点净负荷有功约束[8]: - Pg[8] + Pg[8] - P[8] = 0
 节点净负荷无功约束[0]: - Qg[0] + Qg[0] - Q[0] = 0
 节点净负荷无功约束[1]: - Qg[1] + Qg[1] - Q[1] = 0
 节点净负荷无功约束[2]: - Qg[2] + Qg[2] - Q[2] = 0
 节点净负荷无功约束[3]: - Qg[3] + Qg[3] - Q[3] = 0
 节点净负荷无功约束[4]: - Qg[4] + Qg[4] - Q[4] = 0
 节点净负荷无功约束[5]: - Qg[5] + Qg[5] - Q[5] = 0
 节点净负荷无功约束[6]: - Qg[6] + Qg[6] - Q[6] = 0
 节点净负荷无功约束[7]: - Qg[7] + Qg[7] - Q[7] = 0
 节点净负荷无功约束[8]: - Qg[8] + Qg[8] - Q[8] = 0
 节点净负荷有功约束[0]: Pg[0] = 0
 节点净负荷无功约束[0]: Qg[0] = 0
 节点有功约束[1]: P[1] = 0.011875
 节点有功约束[2]: P[2] = 0.011875
 节点有功约束[3]: P[3] = 0.011875
 节点有功约束[4]: P[4] = 0.011875
 节点有功约束[5]: P[5] = 0.11875
 节点有功约束[6]: P[6] = 0.011875
 节点有功约束[7]: P[7] = 0.11875
 节点有功约束[8]: P[8] = 0.105775
 节点无功约束[1]: Q[1] = 0.003903075
 节点无功约束[2]: Q[2] = 0.003903075
 节点无功约束[3]: Q[3] = 0.003903075
 节点无功约束[4]: Q[4] = 0.003903075
 节点无功约束[5]: Q[5] = 0.03903075
 节点无功约束[6]: Q[6] = 0.003903075
 节点无功约束[7]: Q[7] = 0.03903075
 节点无功约束[8]: Q[8] = 0.034766127
 电压降等效式[0]: Us[0] - Us[1] - 0.0001844 BP[0] - 9.4e-05 BQ[0]
   + 1.07098e-08 Is[0] = 0
 电压降等效式[1]: Us[0] - Us[2] - 0.000986 BP[1] - 0.0005022 BQ[1]
   + 3.061e-07 Is[1] = 0
 电压降等效式[2]: Us[1] - Us[3] - 0.000732 BP[2] - 0.0003728 BQ[2]
   + 1.68701e-07 Is[2] = 0
 电压降等效式[3]: Us[1] - Us[4] - 0.0007622 BP[3] - 0.0003882 BQ[3]
   + 1.82912e-07 Is[3] = 0
 电压降等效式[4]: Us[2] - Us[5] - 0.001638 BP[4] - 0.001414 BQ[4]
   + 1.17061e-06 Is[4] = 0
 电压降等效式[5]: Us[3] - Us[6] - 0.0003744 BP[5] - 0.0012376 BQ[5]
   + 4.17957e-07 Is[5] = 0
 电压降等效式[6]: Us[4] - Us[7] - 0.0034228 BP[6] - 0.0024702 BQ[6]
   + 4.45436e-06 Is[6] = 0
 电压降等效式[7]: Us[4] - Us[8] - 0.00206 BP[7] - 0.00148 BQ[7]
   + 1.6085e-06 Is[7] = 0
 固定电源节点电压[0]: Us[0] = 1.1025
 节点电压上限约束[0]: Us[0] <= 1.1025
 节点电压上限约束[1]: Us[1] <= 1.1025
 节点电压上限约束[2]: Us[2] <= 1.1025
 节点电压上限约束[3]: Us[3] <= 1.1025
 节点电压上限约束[4]: Us[4] <= 1.1025
 节点电压上限约束[5]: Us[5] <= 1.1025
 节点电压上限约束[6]: Us[6] <= 1.1025
 节点电压上限约束[7]: Us[7] <= 1.1025
 节点电压上限约束[8]: Us[8] <= 1.1025
 节点电压下限约束[0]: Us[0] >= 0.64
 节点电压下限约束[1]: Us[1] >= 0.64
 节点电压下限约束[2]: Us[2] >= 0.64
 节点电压下限约束[3]: Us[3] >= 0.64
 节点电压下限约束[4]: Us[4] >= 0.64
 节点电压下限约束[5]: Us[5] >= 0.64
 节点电压下限约束[6]: Us[6] >= 0.64
 节点电压下限约束[7]: Us[7] >= 0.64
 节点电压下限约束[8]: Us[8] >= 0.64
 有功等式约束[0]: P[0] + BP[0] + BP[1] = 0
 有功等式约束[1]: P[1] - BP[0] + BP[2] + BP[3] + 9.22e-05 Is[0] = 0
 有功等式约束[2]: P[2] - BP[1] + BP[4] + 0.000493 Is[1] = 0
 有功等式约束[3]: P[3] - BP[2] + BP[5] + 0.000366 Is[2] = 0
 有功等式约束[4]: P[4] - BP[3] + BP[6] + BP[7] + 0.0003811 Is[3] = 0
 有功等式约束[5]: P[5] - BP[4] + 0.000819 Is[4] = 0
 有功等式约束[6]: P[6] - BP[5] + 0.0001872 Is[5] = 0
 有功等式约束[7]: P[7] - BP[6] + 0.0017114 Is[6] = 0
 有功等式约束[8]: P[8] - BP[7] + 0.00103 Is[7] = 0
 无功等式约束[0]: Q[0] + BQ[0] + BQ[1] = 0
 无功等式约束[1]: Q[1] - BQ[0] + BQ[2] + BQ[3] + 4.7e-05 Is[0] = 0
 无功等式约束[2]: Q[2] - BQ[1] + BQ[4] + 0.0002511 Is[1] = 0
 无功等式约束[3]: Q[3] - BQ[2] + BQ[5] + 0.0001864 Is[2] = 0
 无功等式约束[4]: Q[4] - BQ[3] + BQ[6] + BQ[7] + 0.0001941 Is[3] = 0
 无功等式约束[5]: Q[5] - BQ[4] + 0.000707 Is[4] = 0
 无功等式约束[6]: Q[6] - BQ[5] + 0.0006188 Is[5] = 0
 无功等式约束[7]: Q[7] - BQ[6] + 0.0012351 Is[6] = 0
 无功等式约束[8]: Q[8] - BQ[7] + 0.00074 Is[7] = 0
 R81: BP[0] <= 100
 R82: BP[1] <= 100
 R83: BP[2] <= 100
 R84: BP[3] <= 100
 R85: BP[4] <= 100
 R86: BP[5] <= 100
 R87: BP[6] <= 100
 R88: BP[7] <= 100
 R89: BP[0] >= -100
 R90: BP[1] >= -100
 R91: BP[2] >= -100
 R92: BP[3] >= -100
 R93: BP[4] >= -100
 R94: BP[5] >= -100
 R95: BP[6] >= -100
 R96: BP[7] >= -100
 R97: BQ[0] <= 100
 R98: BQ[1] <= 100
 R99: BQ[2] <= 100
 R100: BQ[3] <= 100
 R101: BQ[4] <= 100
 R102: BQ[5] <= 100
 R103: BQ[6] <= 100
 R104: BQ[7] <= 100
 R105: BQ[0] >= -100
 R106: BQ[1] >= -100
 R107: BQ[2] >= -100
 R108: BQ[3] >= -100
 R109: BQ[4] >= -100
 R110: BQ[5] >= -100
 R111: BQ[6] >= -100
 R112: BQ[7] >= -100
 电流约束[0]: [ - 4 Us[0] * Is[0] + 4 BP[0] ^2 + 4 BQ[0] ^2 ] <= 0
 电流约束[1]: [ - 4 Us[0] * Is[1] + 4 BP[1] ^2 + 4 BQ[1] ^2 ] <= 0
 电流约束[2]: [ - 4 Us[1] * Is[2] + 4 BP[2] ^2 + 4 BQ[2] ^2 ] <= 0
 电流约束[3]: [ - 4 Us[1] * Is[3] + 4 BP[3] ^2 + 4 BQ[3] ^2 ] <= 0
 电流约束[4]: [ - 4 Us[2] * Is[4] + 4 BP[4] ^2 + 4 BQ[4] ^2 ] <= 0
 电流约束[5]: [ - 4 Us[3] * Is[5] + 4 BP[5] ^2 + 4 BQ[5] ^2 ] <= 0
 电流约束[6]: [ - 4 Us[4] * Is[6] + 4 BP[6] ^2 + 4 BQ[6] ^2 ] <= 0
 电流约束[7]: [ - 4 Us[4] * Is[7] + 4 BP[7] ^2 + 4 BQ[7] ^2 ] <= 0
Bounds
 Pg[0] free
 Pg[1] free
 Pg[2] free
 Pg[3] free
 Pg[4] free
 Pg[5] free
 Pg[6] free
 Pg[7] free
 Pg[8] free
 Qg[0] free
 Qg[1] free
 Qg[2] free
 Qg[3] free
 Qg[4] free
 Qg[5] free
 Qg[6] free
 Qg[7] free
 Qg[8] free
 Pg[0] free
 Pg[1] free
 Pg[2] free
 Pg[3] free
 Pg[4] free
 Pg[5] free
 Pg[6] free
 Pg[7] free
 Pg[8] free
 Qg[0] free
 Qg[1] free
 Qg[2] free
 Qg[3] free
 Qg[4] free
 Qg[5] free
 Qg[6] free
 Qg[7] free
 Qg[8] free
 P[0] free
 P[1] free
 P[2] free
 P[3] free
 P[4] free
 P[5] free
 P[6] free
 P[7] free
 P[8] free
 Q[0] free
 Q[1] free
 Q[2] free
 Q[3] free
 Q[4] free
 Q[5] free
 Q[6] free
 Q[7] free
 Q[8] free
 BP[0] free
 BP[1] free
 BP[2] free
 BP[3] free
 BP[4] free
 BP[5] free
 BP[6] free
 BP[7] free
 BQ[0] free
 BQ[1] free
 BQ[2] free
 BQ[3] free
 BQ[4] free
 BQ[5] free
 BQ[6] free
 BQ[7] free
End
